# Solution for model GasLib-40
# Objective value = 22.2013963796234
loadshed[innode_1] 0
loadshed[innode_2] 0
loadshed[innode_3] 0
loadshed[innode_4] 0
loadshed[innode_5] 0
loadshed[innode_6] 0
loadshed[innode_7] 0
loadshed[innode_8] 0
loadshed[source_1] -2.1131261061212947e-01
loadshed[source_2] 1.5170369671131978e-01
loadshed[source_3] 2.0004383938576786e-01
loadshed[sink_1] 0
loadshed[sink_2] 0
loadshed[sink_3] 0
loadshed[sink_4] 0
loadshed[sink_5] 0
loadshed[sink_6] 0
loadshed[sink_7] 0
loadshed[sink_8] 0
loadshed[sink_9] 0
loadshed[sink_10] 0
loadshed[sink_11] 0
loadshed[sink_12] 1
loadshed[sink_13] 0
loadshed[sink_14] 0
loadshed[sink_15] 0
loadshed[sink_16] 0
loadshed[sink_17] 0
loadshed[sink_18] 0
loadshed[sink_19] 0
loadshed[sink_20] 0
loadshed[sink_21] 3.5753761302155807e-01
loadshed[sink_22] 0
loadshed[sink_23] 0
loadshed[sink_24] 0
loadshed[sink_25] 0
loadshed[sink_26] 0
loadshed[sink_27] 0
loadshed[sink_28] 0
loadshed[sink_29] 0
flow[source_1,sink_3] 1.9149674708739673e+02
flow[innode_1,sink_16] 1.6354166666666970e+01
flow[innode_6,sink_13] -1.1986124974881271e+01
flow[sink_13,sink_14] -2.8340291641547939e+01
flow[sink_14,sink_10] -4.4694458308214607e+01
flow[sink_25,sink_26] 1.5340470260623744e+02
flow[sink_26,sink_9] 8.1770833333333655e+01
flow[sink_9,sink_18] 6.5416666666666671e+01
flow[sink_26,sink_4] 5.5279702606237109e+01
flow[sink_4,sink_20] -1.6558583925010634e+01
flow[sink_18,sink_6] 4.9062500000000313e+01
flow[sink_25,innode_8] -1.5878841375406034e+02
flow[sink_6,sink_7] 0
flow[sink_6,sink_22] 3.2708333333333641e+01
flow[sink_7,sink_24] 2.6861103620376610e+01
flow[sink_22,sink_1] 1.6354166666666970e+01
flow[sink_24,sink_21] 1.0506936953709936e+01
flow[sink_21,sink_12] 0
flow[sink_7,sink_5] -4.3215270287043282e+01
flow[sink_5,sink_17] -5.9569436953709953e+01
flow[sink_17,sink_4] -5.5484119864581075e+01
flow[sink_17,sink_8] -2.0439483755795539e+01
flow[sink_3,sink_23] 16.3541666666697
flow[sink_8,sink_20] -3.6793650422462207e+01
flow[sink_25,sink_20] 6.9706401014139487e+01
flow[sink_25,sink_15] -6.8690731558101589e+01
flow[sink_15,sink_29] 0
flow[sink_29,sink_28] 1.6354166666667879e+01
flow[sink_29,sink_2] 1.0139906489143493e+02
flow[sink_2,sink_15] 8.5044898224768261e+01
flow[sink_29,innode_7] -1.3410739822476947e+02
flow[innode_4,sink_19] 4.9325030417545968e+01
flow[sink_19,innode_3] 4.5752999906503007e+01
flow[innode_4,innode_5] 7.7140261224002586e+01
flow[sink_27,innode_5] -7.7140261224002586e+01
flow[sink_27,sink_19] 6.0786094557335915e+01
flow[sink_10,sink_11] 3.2708333333333641e+01
flow[sink_10,innode_2] -4.8003958401711905e+01
flow[sink_10,innode_3] -4.5752999906503007e+01
flow[innode_6,sink_25] 1.1986124974881271e+01
flow[sink_11,innode_1] 1.6354166666666970e+01
flow[sink_19,innode_2] 4.8003958401711905e+01
flow[source_3,innode_4] 1.2646529164154856e+02
flow[source_2,innode_7] 1.3410739822476947e+02
flow[sink_3,innode_8] 1.5878841375406034e+02
pressure[innode_1] 7.6326058564915826e+01
pressure[innode_2] 7.9014967336891388e+01
pressure[innode_3] 7.8913652499563639e+01
pressure[innode_4] 81.01325
pressure[innode_5] 8.0960188860711554e+01
pressure[innode_6] 7.4246979882215072e+01
pressure[innode_7] 81.01325
pressure[innode_8] 8.0373149528895780e+01
pressure[source_1] 81.01325
pressure[source_2] 81.01325
pressure[source_3] 81.01325
pressure[sink_1] 5.2770418933686628e+01
pressure[sink_2] 7.4857849713130733e+01
pressure[sink_3] 8.0373149528895780e+01
pressure[sink_4] 5.6414372307629407e+01
pressure[sink_5] 4.9856459726841173e+01
pressure[sink_6] 5.4871496544074006e+01
pressure[sink_7] 3.1883566758372694e+01
pressure[sink_8] 5.5065187022214246e+01
pressure[sink_9] 5.8548581347532291e+01
pressure[sink_10] 7.6477759872519371e+01
pressure[sink_11] 7.6326058564915826e+01
pressure[sink_12] 1.01325
pressure[sink_13] 7.4313057386134034e+01
pressure[sink_14] 7.4363774752085646e+01
pressure[sink_15] 7.4580196864020522e+01
pressure[sink_16] 7.5304408730098146e+01
pressure[sink_17] 5.4293952199635044e+01
pressure[sink_18] 5.6181611372333634e+01
pressure[sink_19] 7.9014967336891388e+01
pressure[sink_20] 5.7629187017581359e+01
pressure[sink_21] 1.01325
pressure[sink_22] 5.3834188076041642e+01
pressure[sink_23] 80.208431517236
pressure[sink_24] 1.1296045646536557e+00
pressure[sink_25] 7.4246979882215072e+01
pressure[sink_26] 6.3442776767243643e+01
pressure[sink_27] 8.0320067232428613e+01
pressure[sink_28] 7.7131120188999191e+01
pressure[sink_29] 7.7426402462616366e+01
interdiction[source_1,sink_3] 0
interdiction[innode_1,sink_16] 0
interdiction[innode_6,sink_13] 0
interdiction[sink_13,sink_14] 0
interdiction[sink_14,sink_10] 0
interdiction[sink_25,sink_26] 0
interdiction[sink_26,sink_9] 0
interdiction[sink_9,sink_18] 0
interdiction[sink_26,sink_4] 0
interdiction[sink_4,sink_20] 0
interdiction[sink_18,sink_6] 0
interdiction[sink_25,innode_8] 0
interdiction[sink_6,sink_7] 1
interdiction[sink_6,sink_22] 0
interdiction[sink_7,sink_24] 0
interdiction[sink_22,sink_1] 0
interdiction[sink_24,sink_21] 0
interdiction[sink_21,sink_12] 0
interdiction[sink_7,sink_5] 0
interdiction[sink_5,sink_17] 0
interdiction[sink_17,sink_4] 0
interdiction[sink_17,sink_8] 0
interdiction[sink_3,sink_23] 0
interdiction[sink_8,sink_20] 0
interdiction[sink_25,sink_20] 0
interdiction[sink_25,sink_15] 0
interdiction[sink_15,sink_29] 1
interdiction[sink_29,sink_28] 0
interdiction[sink_29,sink_2] 0
interdiction[sink_2,sink_15] 0
interdiction[sink_29,innode_7] 0
interdiction[innode_4,sink_19] 0
interdiction[sink_19,innode_3] 0
interdiction[innode_4,innode_5] 0
interdiction[sink_27,innode_5] 0
interdiction[sink_27,sink_19] 0
interdiction[sink_10,sink_11] 0
interdiction[sink_10,innode_2] 0
interdiction[sink_10,innode_3] 0
interdiction[innode_6,sink_25] 0
interdiction[sink_11,innode_1] 0
interdiction[sink_19,innode_2] 0
interdiction[source_3,innode_4] 0
interdiction[source_2,innode_7] 0
interdiction[sink_3,innode_8] 0
WCcheckFlow[source_1,sink_3] 39
WCcheckFlow[innode_1,sink_16] 1
WCcheckFlow[innode_6,sink_13] 13
WCcheckFlow[sink_13,sink_14] 12
WCcheckFlow[sink_14,sink_10] 11
WCcheckFlow[sink_25,sink_26] 15
WCcheckFlow[sink_26,sink_9] 5
WCcheckFlow[sink_9,sink_18] 4
WCcheckFlow[sink_26,sink_4] 9
WCcheckFlow[sink_4,sink_20] 1
WCcheckFlow[sink_18,sink_6] 3
WCcheckFlow[sink_25,innode_8] -36
WCcheckFlow[sink_6,sink_7] 0
WCcheckFlow[sink_6,sink_22] 2
WCcheckFlow[sink_7,sink_24] 3
WCcheckFlow[sink_22,sink_1] 1
WCcheckFlow[sink_24,sink_21] 2
WCcheckFlow[sink_21,sink_12] 1
WCcheckFlow[sink_7,sink_5] -4
WCcheckFlow[sink_5,sink_17] -5
WCcheckFlow[sink_17,sink_4] -7
WCcheckFlow[sink_17,sink_8] 1
WCcheckFlow[sink_3,sink_23] 1
WCcheckFlow[sink_8,sink_20] 0
WCcheckFlow[sink_25,sink_20] 0
WCcheckFlow[sink_25,sink_15] 6
WCcheckFlow[sink_15,sink_29] 0
WCcheckFlow[sink_29,sink_28] 1
WCcheckFlow[sink_29,sink_2] -4
WCcheckFlow[sink_2,sink_15] -5
WCcheckFlow[sink_29,innode_7] 2
WCcheckFlow[innode_4,sink_19] -4
WCcheckFlow[sink_19,innode_3] -5
WCcheckFlow[innode_4,innode_5] 2
WCcheckFlow[sink_27,innode_5] -1
WCcheckFlow[sink_27,sink_19] 0
WCcheckFlow[sink_10,sink_11] 3
WCcheckFlow[sink_10,innode_2] 1
WCcheckFlow[sink_10,innode_3] 6
WCcheckFlow[innode_6,sink_25] -14
WCcheckFlow[sink_11,innode_1] 2
WCcheckFlow[sink_19,innode_2] 0
WCcheckFlow[source_3,innode_4] -1
WCcheckFlow[source_2,innode_7] -1
WCcheckFlow[sink_3,innode_8] 37
